Mack/Bortfeldt(2008)
Bin-Packing-Problem
BP-RG/SBSBPP/SSSCSP
Testcase-ID	1
Problem-ID	5
no_item_types	3
no_items	1254
CONTAINER_DATA (l,w,h)	587	233	220
ITEMS_DATA:
Type	x	y	z	no_items
1	87	77	43	435
2	88	54	39	407
3	94	54	36	412
